
Gurobi 13.0.2 (win64) logging started Mon Jul 20 08:38:07 2026

Set parameter LogFile to value "E:\codes\ExactEBRP\results\gf_solver_backend_migration_round24r\runs\stage2__tight_T_seed3101__t_grb_ext_cold__300s\external\native_logs\L1_attempt_0.gurobi.log"
Gurobi Optimizer version 13.0.2 build v13.0.2rc1 (win64 - Windows 10.0 (19045.2))

CPU model: 12th Gen Intel(R) Core(TM) i7-12700KF, instruction set [SSE2|AVX|AVX2]
Thread count: 12 physical cores, 20 logical processors, using up to 1 threads

Non-default parameters:
TimeLimit  30
MIPGap  0
MIPGapAbs  0
LogToConsole  0
Threads  1

Optimize a model with 11939 rows, 3384 columns and 67420 nonzeros (Min)
Model fingerprint: 0x1f1358a7
Model has 21 linear objective coefficients
Variable types: 1689 continuous, 1695 integer (1495 binary)
Coefficient statistics:
  Matrix range     [7e-03, 2e+04]
  Objective range  [7e-03, 1e+00]
  Bounds range     [3e-02, 3e+02]
  RHS range        [3e-02, 5e+04]

Presolve removed 1665 rows and 132 columns
Presolve time: 0.30s
Presolved: 10274 rows, 3252 columns, 70680 nonzeros
Variable types: 1615 continuous, 1637 integer (1449 binary)

Root relaxation: objective 2.835132e-02, 3507 iterations, 0.21 seconds (0.58 work units)

    Nodes    |    Current Node    |     Objective Bounds      |     Work
 Expl Unexpl |  Obj  Depth IntInf | Incumbent    BestBd   Gap | It/Node Time

     0     0    0.02835    0  207          -    0.02835      -     -    0s
     0     0    0.03153    0  205          -    0.03153      -     -    0s
     0     0    0.03954    0  287          -    0.03954      -     -    1s
     0     0    0.04109    0  271          -    0.04109      -     -    1s
     0     0    0.04493    0  299          -    0.04493      -     -    2s
     0     0    0.04750    0  231          -    0.04750      -     -    3s
     0     0    0.04891    0  259          -    0.04891      -     -    3s
     0     0    0.04911    0  264          -    0.04911      -     -    4s
     0     0    0.04970    0  278          -    0.04970      -     -    5s
     0     0    0.04981    0  273          -    0.04981      -     -    5s
     0     0    0.05117    0  320          -    0.05117      -     -    5s
     0     0    0.05117    0  307          -    0.05117      -     -    6s
     0     0    0.05157    0  261          -    0.05157      -     -    6s
     0     0    0.05178    0  312          -    0.05178      -     -    7s
     0     0    0.05182    0  234          -    0.05182      -     -    7s
     0     0    0.05187    0  259          -    0.05187      -     -    8s
     0     0    0.05190    0  239          -    0.05190      -     -    8s
     0     0    0.05192    0  266          -    0.05192      -     -    8s
     0     0    0.05192    0  246          -    0.05192      -     -    9s
     0     0    0.05193    0  245          -    0.05193      -     -    9s
     0     0    0.05193    0  245          -    0.05193      -     -   10s
     0     0    0.05193    0  240          -    0.05193      -     -   10s
     0     0    0.05193    0  238          -    0.05193      -     -   10s
     0     2    0.05193    0  236          -    0.05193      -     -   11s
    14    16    0.05301   11  202          -    0.05193      -  1005   17s
    49    49    0.05540   44  246          -    0.05193      -   616   20s
    91    91    0.05616   84  243          -    0.05193      -   441   25s

Cutting planes:
  Learned: 15
  Gomory: 4
  Cover: 39
  Implied bound: 104
  Clique: 17
  MIR: 261
  StrongCG: 3
  Flow cover: 49
  Zero half: 1
  Network: 28
  RLT: 9
  Relax-and-lift: 65
  BQP: 1

Explored 159 nodes (115427 simplex iterations) in 30.00 seconds (61.30 work units)
Thread count was 1 (of 20 available processors)

Solution count 0

Time limit reached
Best objective -, best bound 5.193602276865e-02, gap -

User-callback calls 7723, time in user-callback 0.00 sec
